data;
param nombreJob := 7;
param nombreRessource := 3;
param duree := 1 6 2 2 3 9 4 4 5 9 6 8 7 2;
param capaciteRessource := 1 6 2 13 3 18;
param besoinRessource : 1 2 3 :=
                    1   3 6 5
                    2   3 7 1
                    3   4 8 8
                    4   4 2 2
                    5   1 7 8
                    6   2 1 1
                    7   3 3 6;
end;

